c CNF-Signature OR_30
c 
c $p 30 1
c $m (1,2,3,4,5,6,7,8,9,10,11,12,13,14,15,16,17,18,19,20,21,22,23,24,25,26,27,28,29,30,31)
c $i 1
c $i 2
c $i 3
c $i 4
c $i 5
c $i 6
c $i 7
c $i 8
c $i 9
c $i 10
c $i 11
c $i 12
c $i 13
c $i 14
c $i 15
c $i 16
c $i 17
c $i 18
c $i 19
c $i 20
c $i 21
c $i 22
c $i 23
c $i 24
c $i 25
c $i 26
c $i 27
c $i 28
c $i 29
c $i 30
c $o 31
p cnf 31 31
-1 31 0
-2 31 0
-3 31 0
-4 31 0
-5 31 0
-6 31 0
-7 31 0
-8 31 0
-9 31 0
-10 31 0
-11 31 0
-12 31 0
-13 31 0
-14 31 0
-15 31 0
-16 31 0
-17 31 0
-18 31 0
-19 31 0
-20 31 0
-21 31 0
-22 31 0
-23 31 0
-24 31 0
-25 31 0
-26 31 0
-27 31 0
-28 31 0
-29 31 0
-30 31 0
1 2 3 4 5 6 7 8 9 10 11 12 13 14 15 16 17 18 19 20 21 22 23 24 25 26 27 28 29 30 -31 0
